networks/zoo_52_394/zoo_52_394-lower.txt
Number of groups: 27
Flow 2: {1 13 0} {13 39 0} 
Flow 13: {2 13 0} {13 16 0} {16 42 0} 
Flow 33: {3 20 0} {20 26 0} {26 52 0} 
Flow 35: {4 20 0} {20 3 0} {3 29 0} 
Flow 53: {5 22 0} {22 23 0} {23 24 0} {24 50 0} 
Flow 57: {6 23 0} {23 22 0} {22 48 0} 
Flow 65: {7 25 0} {25 13 0} {13 22 0} {22 11 0} {11 37 0} 
Flow 90: {8 25 0} {25 51 0} 
Flow 94: {9 20 0} {20 19 0} {19 45 0} 
Flow 102: {10 24 0} {24 23 0} {23 20 0} {20 9 0} {9 35 0} 
Flow 119: {11 22 0} {22 5 0} {5 31 0} 
Flow 140: {12 23 0} {23 6 0} {6 32 0} 
Flow 184: {14 24 0} 
Flow 189: {15 19 0} {19 20 0} {20 23 0} {23 49 0} 
Flow 191: {16 13 0} {13 1 0} {1 27 0} 
Flow 206: {17 19 0} {19 15 0} {15 41 0} 
Flow 215: {18 20 0} {20 13 0} {13 12 0} {12 38 0} 
Flow 233: {19 17 0} {17 43 0} 
Flow 243: {13 2 0} {2 28 0} 
Flow 278: {21 13 0} {13 20 0} {20 18 0} {18 44 0} 
Flow 292: {22 13 0} {13 25 0} {25 7 0} {7 33 0} 
Flow 331: {23 12 0} {12 13 0} {13 21 0} {21 47 0} 
Flow 343: {24 10 0} {10 36 0} 
Flow 347: {24 14 0} {14 40 0} 
Flow 362: {20 4 0} {4 30 0} 
Flow 365: {25 8 0} {8 34 0} 
Flow 390: {26 20 0} {20 46 0} 
Time taken running everything: 1 seconds
