networks/zoo_52_394/zoo_52_394-lower.sol
<?xml version = "1.0" encoding="UTF-8" standalone="yes"?>
<CPLEXSolution version="1.2">
 <header
   problemName="networks/zoo_52_394/zoo_52_394-lower.lp"
   solutionName="incumbent"
   solutionIndex="-1"
   objectiveValue="26"
   solutionTypeValue="3"
   solutionTypeString="primal"
   solutionStatusValue="101"
   solutionStatusString="integer optimal solution"
   solutionMethodString="mip"
   primalFeasible="1"
   dualFeasible="1"
   MIPNodes="0"
   MIPIterations="0"
   writeLevel="3"/>
 <quality
   epInt="1.0000000000000001e-05"
   epRHS="9.9999999999999995e-07"
   maxIntInfeas="0"
   maxPrimalInfeas="0"
   maxX="1"
   maxSlack="1"/>
 <variables>
  <variable name="Y(1,12)" index="11" value="1"/>
  <variable name="Y(2,13)" index="64" value="1"/>
  <variable name="Y(3,19)" index="122" value="1"/>
  <variable name="Y(4,22)" index="177" value="1"/>
  <variable name="Y(5,23)" index="230" value="1"/>
  <variable name="Y(6,25)" index="284" value="1"/>
  <variable name="Y(7,1)" index="312" value="1"/>
  <variable name="Y(8,3)" index="366" value="1"/>
  <variable name="Y(9,6)" index="421" value="1"/>
  <variable name="Y(12,15)" index="586" value="1"/>
  <variable name="Y(13,16)" index="639" value="1"/>
  <variable name="Y(14,18)" index="693" value="1"/>
  <variable name="Y(16,20)" index="799" value="1"/>
  <variable name="Y(19,24)" index="959" value="1"/>
  <variable name="Y(21,26)" index="1065" value="1"/>
  <variable name="Y(62,5)" index="3176" value="1"/>
  <variable name="Y(64,9)" index="3284" value="1"/>
  <variable name="Y(65,11)" index="3338" value="1"/>
  <variable name="Y(70,17)" index="3604" value="1"/>
  <variable name="Y(136,2)" index="7021" value="1"/>
  <variable name="Y(138,4)" index="7127" value="1"/>
  <variable name="Y(141,8)" index="7287" value="1"/>
  <variable name="Y(143,10)" index="7393" value="1"/>
  <variable name="Y(146,14)" index="7553" value="1"/>
  <variable name="Y(153,21)" index="7924" value="1"/>
  <variable name="Y(248,7)" index="12850" value="1"/>
  <variable name="X(1,13,1)" index="20488" value="1"/>
  <variable name="X(1,27,7)" index="20888" value="1"/>
  <variable name="X(2,13,7)" index="21282" value="1"/>
  <variable name="X(2,28,136)" index="21805" value="1"/>
  <variable name="X(3,20,22)" index="22085" value="1"/>
  <variable name="X(3,29,8)" index="22465" value="1"/>
  <variable name="X(4,20,34)" index="22885" value="1"/>
  <variable name="X(4,30,138)" index="23383" value="1"/>
  <variable name="X(5,22,47)" index="23686" value="1"/>
  <variable name="X(5,31,62)" index="24095" value="1"/>
  <variable name="X(6,23,55)" index="24482" value="1"/>
  <variable name="X(6,32,9)" index="24830" value="1"/>
  <variable name="X(7,25,60)" index="25275" value="1"/>
  <variable name="X(7,33,248)" index="25857" value="1"/>
  <variable name="X(8,25,79)" index="26082" value="1"/>
  <variable name="X(8,34,141)" index="26538" value="1"/>
  <variable name="X(9,20,92)" index="26883" value="1"/>
  <variable name="X(9,35,64)" index="27249" value="1"/>
  <variable name="X(10,24,98)" index="27677" value="1"/>
  <variable name="X(10,36,143)" index="28116" value="1"/>
  <variable name="X(11,22,117)" index="28484" value="1"/>
  <variable name="X(11,37,65)" index="28826" value="1"/>
  <variable name="X(12,13,56)" index="29211" value="1"/>
  <variable name="X(12,23,5)" index="29554" value="1"/>
  <variable name="X(12,38,1)" index="29944" value="1"/>
  <variable name="X(13,1,7)" index="30344" value="1"/>
  <variable name="X(13,2,136)" index="30867" value="1"/>
  <variable name="X(13,12,1)" index="31126" value="1"/>
  <variable name="X(13,16,13)" index="31532" value="1"/>
  <variable name="X(13,20,3)" index="31916" value="1"/>
  <variable name="X(13,21,153)" index="32460" value="1"/>
  <variable name="X(13,22,4)" index="32705" value="1"/>
  <variable name="X(13,25,6)" index="33101" value="1"/>
  <variable name="X(13,39,2)" index="33491" value="1"/>
  <variable name="X(14,24,183)" index="34066" value="1"/>
  <variable name="X(14,40,146)" index="34423" value="1"/>
  <variable name="X(15,19,185)" index="34856" value="1"/>
  <variable name="X(15,41,12)" index="35077" value="1"/>
  <variable name="X(16,13,191)" index="35650" value="1"/>
  <variable name="X(16,42,13)" index="35866" value="1"/>
  <variable name="X(17,19,203)" index="36450" value="1"/>
  <variable name="X(17,43,70)" index="36711" value="1"/>
  <variable name="X(18,20,215)" index="37250" value="1"/>
  <variable name="X(18,44,14)" index="37443" value="1"/>
  <variable name="X(19,15,12)" index="37835" value="1"/>
  <variable name="X(19,17,70)" index="38287" value="1"/>
  <variable name="X(19,20,185)" index="38796" value="1"/>
  <variable name="X(19,45,3)" index="39008" value="1"/>
  <variable name="X(20,3,8)" index="39407" value="1"/>
  <variable name="X(20,4,138)" index="39931" value="1"/>
  <variable name="X(20,9,64)" index="40251" value="1"/>
  <variable name="X(20,13,22)" index="40603" value="1"/>
  <variable name="X(20,18,14)" index="40989" value="1"/>
  <variable name="X(20,19,3)" index="41372" value="1"/>
  <variable name="X(20,23,30)" index="41793" value="1"/>
  <variable name="X(20,26,21)" index="42178" value="1"/>
  <variable name="X(20,46,16)" index="42567" value="1"/>
  <variable name="X(21,13,267)" index="43212" value="1"/>
  <variable name="X(21,47,153)" index="43492" value="1"/>
  <variable name="X(22,5,62)" index="43795" value="1"/>
  <variable name="X(22,11,65)" index="44192" value="1"/>
  <variable name="X(22,13,47)" index="44568" value="1"/>
  <variable name="X(22,23,52)" index="44967" value="1"/>
  <variable name="X(22,48,4)" index="45313" value="1"/>
  <variable name="X(23,6,9)" index="45712" value="1"/>
  <variable name="X(23,12,55)" index="46152" value="1"/>
  <variable name="X(23,20,99)" index="46590" value="1"/>
  <variable name="X(23,22,57)" index="46942" value="1"/>
  <variable name="X(23,24,19)" index="47298" value="1"/>
  <variable name="X(23,49,5)" index="47678" value="1"/>
  <variable name="X(24,10,143)" index="48210" value="1"/>
  <variable name="X(24,14,146)" index="48607" value="1"/>
  <variable name="X(24,23,98)" index="48953" value="1"/>
  <variable name="X(24,50,19)" index="49268" value="1"/>
  <variable name="X(25,7,248)" index="49891" value="1"/>
  <variable name="X(25,8,141)" index="50178" value="1"/>
  <variable name="X(25,13,60)" index="50491" value="1"/>
  <variable name="X(25,51,6)" index="50831" value="1"/>
  <variable name="X(26,20,383)" index="51602" value="1"/>
  <variable name="X(26,52,21)" index="51634" value="1"/>
 </variables>
</CPLEXSolution>
